
Gurobi 12.0.2 (win64) logging started Thu Jan  8 11:19:29 2026

Set parameter LogFile to value "C:\Ioana\_uni\honours\slp\algorithm\Main_files\results\paracetamol_final_final_hepato\Task_003_Sample003_irr_gurobi.log"
Gurobi Optimizer version 12.0.2 build v12.0.2rc0 (win64 - Windows 11.0 (26100.2))

CPU model: Intel(R) Core(TM) Ultra 5 125H, instruction set [SSE2|AVX|AVX2]
Thread count: 14 physical cores, 18 logical processors, using up to 18 threads

Non-default parameters:
TimeLimit  2200

Optimize a model with 47236 rows, 34520 columns and 146730 nonzeros
Model fingerprint: 0x8631ef62
Variable types: 17271 continuous, 17249 integer (17249 binary)
Coefficient statistics:
  Matrix range     [1e-04, 8e+04]
  Objective range  [2e-05, 1e+01]
  Bounds range     [1e+00, 1e+03]
  RHS range        [1e+00, 1e+00]
Presolve removed 30819 rows and 21541 columns
Presolve time: 0.39s
Presolved: 16417 rows, 12979 columns, 54949 nonzeros
Variable types: 6430 continuous, 6549 integer (6549 binary)
Found heuristic solution: objective 22.6179258

Root relaxation: objective 4.847642e-03, 4830 iterations, 0.61 seconds (1.18 work units)

    Nodes    |    Current Node    |     Objective Bounds      |     Work
 Expl Unexpl |  Obj  Depth IntInf | Incumbent    BestBd   Gap | It/Node Time

     0     0    0.00485    0    2   22.61793    0.00485   100%     -    1s
H    0     0                       0.9037756    0.00485  99.5%     -    1s
H    0     0                       0.8811597    0.00485  99.4%     -    1s

Cutting planes:
  Cover: 3
  Implied bound: 1
  Flow cover: 5
  Relax-and-lift: 1

Explored 1 nodes (4830 simplex iterations) in 1.28 seconds (1.72 work units)
Thread count was 18 (of 18 available processors)

Solution count 3: 0.88116 0.903776 22.6179 

Optimal solution found (tolerance 1.00e-04)
Best objective 8.811596623451e-01, best bound 8.811596623451e-01, gap 0.0000%
